\* Problem: Unknown *\

Maximize
 obj: + xp_0_0 + xp_0_1 + xp_0_2 + xp_0_3 + xp_0_4 + xp_0_5 + xp_1_0
 + xp_1_1 + xp_1_2 + xp_1_3 + xp_1_4 + xp_1_5 + xp_1_6 + xp_1_7 + xp_1_8
 + xp_1_9 + xp_1_10 + xp_1_11 + xp_1_12 + xp_1_13 + xp_1_14 + xp_1_15
 + xp_1_16 + xp_1_17 + xp_2_0 + xp_2_1 + xp_2_2 + xp_2_3 + xp_2_4
 + xp_2_5 + xp_2_6 + xp_2_7 + xp_2_8 + xp_2_9 + xp_2_10 + xp_2_11
 + xp_2_12 + xp_2_13 + xp_2_14 + xp_2_15 + xp_2_16 + xp_2_17 + xp_2_18
 + xp_2_19 + xp_2_20 + xp_2_21 + xp_2_22 + xp_2_23 + xp_2_24 + xp_2_25
 + xp_3_0 + xp_3_1 + xp_3_2 + xp_3_3 + xp_3_4 + xp_3_5 + xp_3_6 + xp_3_7
 + xp_3_8 + xp_3_9 + xp_3_10 + xp_3_11 + xp_3_12 + xp_3_13 + xp_3_14
 + xp_3_15 + xp_3_16 + xp_3_17 + xp_3_18 + xp_3_19 + xp_3_20 + xp_4_0
 + xp_4_1 + xp_5_0 + xp_5_1 + xp_5_2 + xp_5_3 + xp_6_0 + xp_6_1 + xp_6_2
 + xp_6_3 + xp_7_0 + xp_7_1 + xp_8_0 + xp_8_1 + xp_8_2 + xp_8_3 + xp_8_4
 + xp_8_5 + xp_8_6 + xp_8_7 + xp_8_8 + xp_9_0 + xp_9_1 + xp_9_2 + xp_9_3
 + xp_9_4 + xp_10_0 + xp_10_1 + xp_10_2 + xp_10_3 + xp_10_4 + xp_10_5
 + xp_10_6 + xp_11_0 + xp_11_1 + xp_11_2 + xp_11_3 + xp_11_4 + xp_11_5
 + xp_11_6 + xp_11_7 + xp_12_0 + xp_12_1 + xp_12_2 + xp_12_3 + xp_12_4
 + xp_12_5 + xp_12_6 + xp_12_7 + xp_13_0 + xp_13_1 + xp_13_2 + xp_13_3
 + xp_13_4 + xp_14_0 + xp_14_1 + xp_14_2 + xp_14_3 + xp_14_4 + xp_14_5
 + xp_14_6 + xp_14_7 + xp_14_8 + xp_14_9 + xp_14_10 + xp_14_11
 + xp_14_12 + xp_14_13 + xp_14_14 + xp_14_15 + xp_14_16 + xp_14_17
 + xp_14_18 + xp_14_19 + xp_14_20 + xp_14_21 + xp_14_22 + xp_14_23
 + xp_14_24 + xp_14_25 + xp_14_26 + xp_14_27 + xp_15_0 + xp_15_1
 + xp_15_2 + xp_15_3 + xp_15_4 + xp_15_5 + xp_15_6 + xp_15_7 + xp_15_8
 + xp_16_0 + xp_16_1 + xp_16_2 + xp_16_3 + xp_17_0 + xp_17_1 + xp_17_2
 + xp_17_3 + xp_17_4 + xp_17_5 + xp_17_6 + xp_17_7 + xp_18_0 + xp_18_1
 + xp_18_2 + xp_18_3 + xp_18_4 + xp_18_5 + xp_18_6 + xp_19_0 + xp_19_1
 + xp_19_2 + xp_19_3 + xp_19_4 + xp_19_5 + xp_19_6 + xp_19_7 + xp_19_8
 + xp_19_9 + xp_19_10 + xp_19_11 + xp_19_12 + xp_19_13 + xp_19_14
 + xp_19_15 + xp_19_16 + xp_19_17 + xp_19_18 + xp_19_19 + xp_19_20
 + xp_19_21 + xp_19_22 + xp_20_0 + xp_20_1 + xp_20_2 + xp_20_3 + xp_20_4
 + xp_20_5 + xp_20_6 + xp_20_7 + xp_20_8 + xp_20_9 + xp_20_10 + xp_20_11
 + xp_20_12 + xp_21_0 + xp_21_1 + xp_21_2 + xp_21_3 + xp_21_4 + xp_21_5

Subject To
 r_1: + xp_20_0 + xp_14_19 <= 0.83425
 r_2: + xp_20_10 + xp_19_22 + xp_10_0 + xp_3_13 + xp_2_9 + xp_2_1
 + xp_1_11 <= 0.826163610719323
 r_3: + xp_20_1 + xp_10_5 + xp_10_4 + xp_2_10 <= 0.822316384180791
 r_4: + xp_20_12 + xp_20_8 + xp_20_7 + xp_20_3 + xp_19_7 + xp_18_0
 + xp_14_18 + xp_11_5 + xp_11_3 + xp_11_1 + xp_10_6 + xp_10_3 + xp_2_17
 + xp_1_16 + xp_1_13 <= 0.822126116071428
 r_5: + xp_21_3 + xp_20_11 + xp_20_5 + xp_19_14 + xp_19_10 + xp_18_6
 + xp_11_6 + xp_10_2 + xp_3_7 + xp_3_1 + xp_2_20 + xp_1_17 + xp_1_6
 <= 0.820757113821138
 r_6: + xp_19_3 + xp_11_0 <= 0.825303234501348
 r_7: + xp_20_9 + xp_20_6 + xp_20_4 + xp_19_16 + xp_19_15 + xp_19_13
 + xp_19_12 + xp_11_7 + xp_11_4 + xp_11_2 + xp_10_1 + xp_3_12 + xp_2_25
 + xp_2_8 + xp_2_7 + xp_1_10 + xp_0_5 <= 0.822511441647597
 r_8: + xp_20_2 <= 0.821409574468085
 r_9: + xp_3_11 + xp_2_14 + xp_2_0 + xp_1_8 <= 0.826163610719323
 r_10: 0 xp_0_0 <= 0.822316384180791
 r_11: + xp_1_4 + xp_0_1 <= 0.822511441647597
 r_12: 0 xp_0_0 <= 0.821409574468085
 r_13: + xp_12_2 <= 0.825303234501348
 r_14: 0 xp_0_0 <= 0.822126116071428
 r_15: + xp_3_17 + xp_3_2 + xp_1_5 <= 0.820757113821138
 r_16: + xp_13_1 <= 0.83425
 r_17: 0 xp_0_0 <= 0.83425
 r_18: + xp_19_0 + xp_12_1 <= 0.825303234501348
 r_19: + xp_17_7 + xp_17_4 + xp_15_5 + xp_15_4 + xp_14_27 + xp_14_19
 + xp_14_14 + xp_14_11 + xp_14_5 + xp_14_3 + xp_8_8 + xp_8_6 + xp_8_5
 + xp_3_17 + xp_2_14 <= 0.83425
 r_20: + xp_3_15 + xp_2_24 + xp_1_2 <= 0.824027603513174
 r_21: 0 xp_0_0 <= 0.822316384180791
 r_22: + xp_3_20 + xp_3_16 + xp_3_14 + xp_2_5 + xp_0_3
 <= 0.822126116071428
 r_23: 0 xp_0_0 <= 0.821409574468085
 r_24: 0 xp_0_0 <= 0.821409574468085
 r_25: + xp_9_3 <= 0.820757113821138
 r_26: + xp_17_0 + xp_15_3 + xp_14_21 + xp_14_20 + xp_14_9 + xp_14_7
 + xp_8_7 + xp_8_4 <= 0.820757113821138
 r_27: + xp_20_9 + xp_20_8 + xp_20_5 + xp_19_18 + xp_18_5 + xp_17_4
 + xp_16_2 + xp_1_17 + xp_1_15 + xp_1_14 + xp_1_12 + xp_1_6 + xp_1_5
 + xp_1_0 <= 0.824027603513174
 r_28: + xp_4_1 <= 0.822316384180791
 r_29: + xp_17_1 + xp_15_8 + xp_14_16 + xp_14_10 + xp_10_2 + xp_5_2
 + xp_2_20 + xp_2_15 + xp_2_13 + xp_2_12 + xp_2_7 + xp_2_4
 <= 0.826163610719323
 r_30: + xp_20_11 + xp_19_14 + xp_19_9 + xp_18_6 + xp_18_2 + xp_17_7
 + xp_17_2 + xp_14_24 + xp_14_12 + xp_2_22 <= 0.822126116071428
 r_31: + xp_17_6 + xp_17_5 + xp_14_17 + xp_0_2 <= 0.822511441647597
 r_32: + xp_19_17 + xp_19_16 + xp_19_11 + xp_19_10 + xp_19_6 + xp_19_1
 + xp_17_3 + xp_14_23 + xp_12_7 + xp_12_3 + xp_11_6 + xp_11_4 + xp_11_3
 + xp_6_2 <= 0.825303234501348
 r_33: + xp_21_5 + xp_21_2 + xp_13_2 + xp_3_8 + xp_2_16 + xp_2_13
 + xp_2_11 + xp_1_3 <= 0.824027603513174
 r_34: + xp_13_0 <= 0.825303234501348
 r_35: + xp_17_3 + xp_14_23 + xp_13_1 + xp_8_3 <= 0.825303234501348
 r_36: + xp_21_4 + xp_21_1 + xp_13_4 + xp_13_3 + xp_3_18 + xp_3_10
 + xp_3_4 + xp_2_6 <= 0.822126116071428
 r_37: + xp_21_3 + xp_9_1 <= 0.825303234501348
 r_38: 0 xp_0_0 <= 0.821409574468085
 r_39: + xp_21_0 + xp_3_5 + xp_2_12 <= 0.825303234501348
 r_40: + xp_20_10 + xp_19_22 + xp_19_19 + xp_18_4 + xp_14_27 + xp_14_26
 <= 0.822126116071428
 r_41: 0 xp_0_0 <= 0.826163610719323
 r_42: + xp_17_6 + xp_17_1 + xp_15_8 + xp_15_7 + xp_15_2 + xp_14_25
 + xp_14_24 + xp_14_16 + xp_14_10 + xp_14_8 + xp_14_2 + xp_8_2
 <= 0.826163610719323
 r_43: + xp_19_20 + xp_12_5 + xp_1_11 + xp_1_8 <= 0.824027603513174
 r_44: 0 xp_0_0 <= 0.822316384180791
 r_45: + xp_19_17 + xp_14_21 + xp_3_20 + xp_3_18 + xp_3_13 + xp_3_11
 <= 0.826163610719323
 r_46: + xp_14_22 <= 0.822511441647597
 r_47: + xp_19_21 + xp_19_20 + xp_19_18 + xp_19_13 + xp_19_5 + xp_12_6
 + xp_12_5 + xp_11_7 + xp_11_5 + xp_6_0 <= 0.824027603513174
 r_48: + xp_19_15 + xp_19_8 + xp_18_5 + xp_18_3 + xp_15_6 + xp_14_13
 + xp_6_1 + xp_5_1 + xp_2_16 <= 0.822126116071428
 r_49: 0 xp_0_0 <= 0.822316384180791
 r_50: + xp_20_12 + xp_20_9 + xp_20_8 + xp_20_7 + xp_20_5 + xp_20_4
 + xp_17_4 + xp_16_3 + xp_16_2 + xp_16_1 + xp_15_5 + xp_14_11 + xp_14_5
 + xp_13_4 + xp_13_2 + xp_8_8 + xp_8_6 <= 0.824027603513174
 r_51: + xp_21_2 + xp_19_11 + xp_14_16 + xp_14_7 + xp_6_2 + xp_5_2
 + xp_3_15 + xp_3_8 + xp_2_13 <= 0.824027603513174
 r_52: + xp_5_0 + xp_2_24 + xp_2_23 + xp_2_21 + xp_2_11
 <= 0.824027603513174
 r_53: + xp_21_5 + xp_14_15 + xp_6_3 + xp_5_3 <= 0.822511441647597
 r_54: + xp_15_7 + xp_14_25 + xp_14_24 + xp_10_3 + xp_8_2 + xp_5_1
 + xp_3_20 + xp_3_18 + xp_2_22 + xp_2_18 + xp_2_17 + xp_2_16 + xp_2_6
 + xp_2_5 <= 0.822126116071428
 r_55: + xp_20_7 + xp_16_1 + xp_13_4 + xp_11_5 + xp_8_6 + xp_7_0
 + xp_1_13 <= 0.822126116071428
 r_56: + xp_19_22 + xp_19_19 + xp_19_15 + xp_19_14 + xp_19_12 + xp_19_9
 + xp_19_8 + xp_19_7 + xp_19_4 + xp_12_4 + xp_11_2 + xp_11_1 + xp_8_3
 + xp_6_3 + xp_6_1 <= 0.822126116071428
 r_57: 0 xp_0_0 <= 0.822126116071428
 r_58: + xp_17_2 + xp_15_6 + xp_15_1 + xp_14_26 + xp_14_18 + xp_14_13
 + xp_14_12 + xp_14_6 + xp_8_0 <= 0.822126116071428
 r_59: + xp_20_11 + xp_20_10 + xp_20_6 + xp_20_3 + xp_17_7 + xp_16_0
 + xp_15_4 + xp_14_27 + xp_14_14 + xp_13_3 + xp_8_5 <= 0.822126116071428
 r_60: + xp_21_1 + xp_20_8 + xp_16_2 + xp_11_3 + xp_8_4 + xp_3_14
 + xp_3_10 + xp_3_9 <= 0.822126116071428
 r_61: + xp_21_4 + xp_20_12 + xp_16_3 + xp_10_6 + xp_8_8 + xp_8_7
 + xp_8_1 + xp_7_1 + xp_3_16 + xp_3_4 + xp_1_16 + xp_0_3
 <= 0.822511441647597
 r_62: + xp_19_11 + xp_19_8 + xp_19_5 + xp_18_3 + xp_14_16 + xp_14_15
 + xp_14_13 + xp_14_7 + xp_14_5 + xp_2_21 + xp_1_1 <= 0.822316384180791
 r_63: + xp_19_22 + xp_19_16 + xp_19_15 + xp_19_14 + xp_19_13 + xp_19_12
 + xp_19_10 + xp_19_7 + xp_19_3 + xp_18_6 + xp_18_0 + xp_14_19
 + xp_14_18 + xp_9_2 + xp_3_7 + xp_2_25 + xp_2_9 + xp_1_17
 <= 0.822316384180791
 r_64: + xp_14_0 <= 0.822316384180791
 r_65: + xp_20_1 + xp_19_0 + xp_14_3 <= 0.822316384180791
 r_66: + xp_19_18 + xp_19_9 + xp_19_1 + xp_18_5 + xp_18_2 + xp_14_24
 + xp_14_17 + xp_14_12 + xp_14_10 + xp_14_9 + xp_3_3 + xp_2_22 + xp_2_15
 + xp_1_14 <= 0.822316384180791
 r_67: + xp_19_20 + xp_19_19 + xp_19_17 + xp_18_4 + xp_14_27 + xp_14_26
 + xp_14_22 + xp_14_21 + xp_14_2 + xp_12_5 + xp_10_4 + xp_2_10 + xp_2_2
 <= 0.822316384180791
 r_68: + xp_19_21 + xp_19_6 + xp_19_4 + xp_18_1 + xp_14_25 + xp_14_23
 + xp_14_20 + xp_14_14 + xp_14_11 + xp_14_8 + xp_14_6 + xp_14_1
 + xp_10_5 + xp_3_19 + xp_2_19 + xp_1_12 + xp_1_9 + xp_0_4
 <= 0.822511441647597
 r_69: + xp_19_2 + xp_14_4 <= 0.821409574468085
 r_70: 0 xp_0_0 <= 0.821409574468085
 r_71: + xp_17_5 + xp_15_0 + xp_14_22 + xp_14_17 + xp_14_15 + xp_14_1
 + xp_8_1 <= 0.822511441647597
 r_72: + xp_9_4 <= 0.822511441647597
 r_73: + xp_21_5 + xp_21_4 + xp_20_9 + xp_19_16 + xp_19_6 + xp_15_8
 + xp_15_3 + xp_14_23 + xp_14_20 + xp_12_3 + xp_11_4 + xp_8_7 + xp_4_1
 + xp_3_19 + xp_3_16 + xp_3_12 + xp_3_6 + xp_3_4 + xp_2_7 + xp_1_15
 + xp_1_12 <= 0.822511441647597
 r_74: + xp_17_6 + xp_15_2 + xp_14_8 + xp_10_6 + xp_10_5 + xp_10_1
 + xp_5_3 + xp_2_25 + xp_2_19 + xp_2_8 + xp_2_3 <= 0.822511441647597
 r_75: + xp_20_12 + xp_20_4 + xp_19_21 + xp_19_15 + xp_19_13 + xp_16_3
 + xp_15_6 + xp_15_5 + xp_14_11 + xp_12_6 + xp_11_7 + xp_8_8 + xp_7_1
 + xp_2_23 + xp_1_16 + xp_1_10 + xp_1_9 + xp_1_7 + xp_1_4
 <= 0.822511441647597
 r_76: + xp_20_6 + xp_19_12 + xp_19_4 + xp_18_1 + xp_15_7 + xp_15_4
 + xp_15_1 + xp_14_25 + xp_14_14 + xp_14_6 + xp_12_4 + xp_11_2 + xp_6_3
 + xp_3_9 + xp_2_18 <= 0.822511441647597
 r_77: + xp_4_0 <= 0.822511441647597
 r_78: + xp_12_7 + xp_9_3 + xp_3_0 + xp_2_4 + xp_1_0 + xp_0_2
 <= 0.821409574468085
 r_79: + xp_12_6 + xp_12_4 + xp_12_3 + xp_9_4 + xp_3_9 + xp_3_6
 + xp_2_23 + xp_2_18 + xp_2_3 + xp_1_15 + xp_1_7 + xp_0_0
 <= 0.821409574468085
 r_80: + xp_14_4 + xp_12_2 + xp_3_11 + xp_3_2 + xp_2_0 + xp_1_8 + xp_1_5
 + xp_1_4 + xp_0_1 <= 0.821409574468085
 r_81: + xp_9_0 + xp_3_13 + xp_3_12 + xp_3_1 + xp_2_20 + xp_2_17
 + xp_2_10 + xp_2_8 + xp_2_7 + xp_2_1 + xp_1_16 + xp_1_13 + xp_1_11
 + xp_1_10 + xp_1_6 + xp_0_5 <= 0.821409574468085
 r_82: + xp_20_2 + xp_12_1 + xp_3_20 + xp_3_17 + xp_3_16 + xp_3_15
 + xp_3_14 + xp_2_24 + xp_2_14 + xp_2_5 + xp_1_2 + xp_0_3
 <= 0.821409574468085
 r_83: + xp_19_2 + xp_12_0 + xp_9_1 + xp_3_18 + xp_3_10 + xp_3_8
 + xp_3_5 + xp_3_4 + xp_2_16 + xp_2_13 + xp_2_12 + xp_2_11 + xp_2_6
 + xp_1_3 <= 0.821409574468085
 r_84: + xp_12_5 + xp_9_2 + xp_3_19 + xp_3_7 + xp_3_3 + xp_2_25
 + xp_2_22 + xp_2_21 + xp_2_19 + xp_2_15 + xp_2_9 + xp_2_2 + xp_1_17
 + xp_1_14 + xp_1_12 + xp_1_9 + xp_1_1 + xp_0_4 <= 0.821409574468085

Bounds
 0 <= xp_0_0 <= 0.495575221238938
 0 <= xp_0_1 <= 0.0442477876106195
 0 <= xp_0_2 <= 0.36283185840708
 0 <= xp_0_3 <= 0.0619469026548673
 0 <= xp_0_4 <= 0.00884955752212389
 0 <= xp_0_5 <= 0.00884955752212389
 0 <= xp_1_0 <= 0.176991150442478
 0 <= xp_1_1 <= 0.216814159292035
 0 <= xp_1_2 <= 0.367256637168142
 0 <= xp_1_3 <= 0.115044247787611
 0 <= xp_1_4 <= 0.0132743362831858
 0 <= xp_1_5 <= 0.0442477876106195
 0 <= xp_1_6 <= 0.0619469026548673
 0 <= xp_1_7 <= 0.168141592920354
 0 <= xp_1_8 <= 0.128318584070796
 0 <= xp_1_9 <= 0.0486725663716814
 0 <= xp_1_10 <= 0.0398230088495575
 0 <= xp_1_11 <= 0.0265486725663717
 0 <= xp_1_12 <= 0.00442477876106195
 0 <= xp_1_13 <= 0.0132743362831858
 0 <= xp_1_14 <= 0.0265486725663717
 0 <= xp_1_15 <= 0.00442477876106195
 0 <= xp_1_16 <= 0.00884955752212389
 0 <= xp_1_17 <= 0.00884955752212389
 0 <= xp_2_0 <= 0.36283185840708
 0 <= xp_2_1 <= 0.154867256637168
 0 <= xp_2_2 <= 0.309734513274336
 0 <= xp_2_3 <= 0.0663716814159292
 0 <= xp_2_4 <= 0.0221238938053097
 0 <= xp_2_5 <= 0.150442477876106
 0 <= xp_2_6 <= 0.106194690265487
 0 <= xp_2_7 <= 0.00442477876106195
 0 <= xp_2_8 <= 0.0619469026548673
 0 <= xp_2_9 <= 0.0221238938053097
 0 <= xp_2_10 <= 0.00884955752212389
 0 <= xp_2_11 <= 0.0309734513274336
 0 <= xp_2_12 <= 0.00442477876106195
 0 <= xp_2_13 <= 0.00884955752212389
 0 <= xp_2_14 <= 0.0530973451327434
 0 <= xp_2_15 <= 0.0132743362831858
 0 <= xp_2_16 <= 0.00442477876106195
 0 <= xp_2_17 <= 0.0221238938053097
 0 <= xp_2_18 <= 0.00442477876106195
 0 <= xp_2_19 <= 0.0132743362831858
 0 <= xp_2_20 <= 0.00442477876106195
 0 <= xp_2_21 <= 0.0176991150442478
 0 <= xp_2_22 <= 0.00884955752212389
 0 <= xp_2_23 <= 0.00442477876106195
 0 <= xp_2_24 <= 0.00442477876106195
 0 <= xp_2_25 <= 0.00884955752212389
 0 <= xp_3_0 <= 0.424778761061947
 0 <= xp_3_1 <= 0.274336283185841
 0 <= xp_3_2 <= 0.256637168141593
 0 <= xp_3_3 <= 0.0265486725663717
 0 <= xp_3_4 <= 0.00884955752212389
 0 <= xp_3_5 <= 0.115044247787611
 0 <= xp_3_6 <= 0.212389380530973
 0 <= xp_3_7 <= 0.00884955752212389
 0 <= xp_3_8 <= 0.106194690265487
 0 <= xp_3_9 <= 0.00884955752212389
 0 <= xp_3_10 <= 0.168141592920354
 0 <= xp_3_11 <= 0.0530973451327434
 0 <= xp_3_12 <= 0.0176991150442478
 0 <= xp_3_13 <= 0.0265486725663717
 0 <= xp_3_14 <= 0.106194690265487
 0 <= xp_3_15 <= 0.079646017699115
 0 <= xp_3_16 <= 0.00884955752212389
 0 <= xp_3_17 <= 0.0265486725663717
 0 <= xp_3_18 <= 0.00884955752212389
 0 <= xp_3_19 <= 0.00884955752212389
 0 <= xp_3_20 <= 0.0176991150442478
 0 <= xp_4_0 <= 0.473451327433628
 0 <= xp_4_1 <= 0.0176991150442478
 0 <= xp_5_0 <= 0.707964601769911
 0 <= xp_5_1 <= 0.106194690265487
 0 <= xp_5_2 <= 0.0530973451327434
 0 <= xp_5_3 <= 0.115044247787611
 0 <= xp_6_0 <= 0.52212389380531
 0 <= xp_6_1 <= 0.336283185840708
 0 <= xp_6_2 <= 0.115044247787611
 0 <= xp_6_3 <= 0.00884955752212389
 0 <= xp_7_0 <= 0.464601769911504
 0 <= xp_7_1 <= 0.0265486725663717
 0 <= xp_8_0 <= 0.225663716814159
 0 <= xp_8_1 <= 0.079646017699115
 0 <= xp_8_2 <= 0.0929203539823009
 0 <= xp_8_3 <= 0.00442477876106195
 0 <= xp_8_4 <= 0.0442477876106195
 0 <= xp_8_5 <= 0.0132743362831858
 0 <= xp_8_6 <= 0.0132743362831858
 0 <= xp_8_7 <= 0.00884955752212389
 0 <= xp_8_8 <= 0.00884955752212389
 0 <= xp_9_0 <= 0.247787610619469
 0 <= xp_9_1 <= 0.00442477876106195
 0 <= xp_9_2 <= 0.225663716814159
 0 <= xp_9_3 <= 0.00884955752212389
 0 <= xp_9_4 <= 0.00442477876106195
 0 <= xp_10_0 <= 0.623893805309734
 0 <= xp_10_1 <= 0.323008849557522
 0 <= xp_10_2 <= 0.234513274336283
 0 <= xp_10_3 <= 0.199115044247788
 0 <= xp_10_4 <= 0.0663716814159292
 0 <= xp_10_5 <= 0.00884955752212389
 0 <= xp_10_6 <= 0.0176991150442478
 0 <= xp_11_0 <= 0.734513274336283
 0 <= xp_11_1 <= 0.141592920353982
 0 <= xp_11_2 <= 0.00884955752212389
 0 <= xp_11_3 <= 0.00884955752212389
 0 <= xp_11_4 <= 0.0265486725663717
 0 <= xp_11_5 <= 0.00884955752212389
 0 <= xp_11_6 <= 0.0442477876106195
 0 <= xp_11_7 <= 0.00884955752212389
 0 <= xp_12_0 <= 0.283185840707965
 0 <= xp_12_1 <= 0.0884955752212389
 0 <= xp_12_2 <= 0.084070796460177
 0 <= xp_12_3 <= 0.0132743362831858
 0 <= xp_12_4 <= 0.00442477876106195
 0 <= xp_12_5 <= 0.00442477876106195
 0 <= xp_12_6 <= 0.00884955752212389
 0 <= xp_12_7 <= 0.00442477876106195
 0 <= xp_13_0 <= 0.938053097345133
 0 <= xp_13_1 <= 0.858407079646018
 0 <= xp_13_2 <= 0.115044247787611
 0 <= xp_13_3 <= 0.0442477876106195
 0 <= xp_13_4 <= 0.00884955752212389
 0 <= xp_14_0 <= 0.951327433628319
 0 <= xp_14_1 <= 0.269911504424779
 0 <= xp_14_2 <= 0.292035398230089
 0 <= xp_14_3 <= 0.238938053097345
 0 <= xp_14_4 <= 0.00884955752212389
 0 <= xp_14_5 <= 0.0442477876106195
 0 <= xp_14_6 <= 0.0752212389380531
 0 <= xp_14_7 <= 0.0132743362831858
 0 <= xp_14_8 <= 0.0752212389380531
 0 <= xp_14_9 <= 0.123893805309735
 0 <= xp_14_10 <= 0.0265486725663717
 0 <= xp_14_11 <= 0.0309734513274336
 0 <= xp_14_12 <= 0.0309734513274336
 0 <= xp_14_13 <= 0.0442477876106195
 0 <= xp_14_14 <= 0.00884955752212389
 0 <= xp_14_15 <= 0.0752212389380531
 0 <= xp_14_16 <= 0.00442477876106195
 0 <= xp_14_17 <= 0.0221238938053097
 0 <= xp_14_18 <= 0.00884955752212389
 0 <= xp_14_19 <= 0.0265486725663717
 0 <= xp_14_20 <= 0.00884955752212389
 0 <= xp_14_21 <= 0.0309734513274336
 0 <= xp_14_22 <= 0.0132743362831858
 0 <= xp_14_23 <= 0.00884955752212389
 0 <= xp_14_24 <= 0.00442477876106195
 0 <= xp_14_25 <= 0.00442477876106195
 0 <= xp_14_26 <= 0.00442477876106195
 0 <= xp_14_27 <= 0.00884955752212389
 0 <= xp_15_0 <= 0.36283185840708
 0 <= xp_15_1 <= 0.176991150442478
 0 <= xp_15_2 <= 0.0619469026548673
 0 <= xp_15_3 <= 0.185840707964602
 0 <= xp_15_4 <= 0.106194690265487
 0 <= xp_15_5 <= 0.0530973451327434
 0 <= xp_15_6 <= 0.00884955752212389
 0 <= xp_15_7 <= 0.00884955752212389
 0 <= xp_15_8 <= 0.0176991150442478
 0 <= xp_16_0 <= 0.349557522123894
 0 <= xp_16_1 <= 0.123893805309735
 0 <= xp_16_2 <= 0.00884955752212389
 0 <= xp_16_3 <= 0.00884955752212389
 0 <= xp_17_0 <= 0.517699115044248
 0 <= xp_17_1 <= 0.331858407079646
 0 <= xp_17_2 <= 0.349557522123894
 0 <= xp_17_3 <= 0.0575221238938053
 0 <= xp_17_4 <= 0.0884955752212389
 0 <= xp_17_5 <= 0.110619469026549
 0 <= xp_17_6 <= 0.00442477876106195
 0 <= xp_17_7 <= 0.0132743362831858
 0 <= xp_18_0 <= 0.079646017699115
 0 <= xp_18_1 <= 0.154867256637168
 0 <= xp_18_2 <= 0.101769911504425
 0 <= xp_18_3 <= 0.101769911504425
 0 <= xp_18_4 <= 0.0398230088495575
 0 <= xp_18_5 <= 0.00442477876106195
 0 <= xp_18_6 <= 0.00884955752212389
 0 <= xp_19_0 <= 0.0221238938053097
 0 <= xp_19_1 <= 0.376106194690265
 0 <= xp_19_2 <= 0.0221238938053097
 0 <= xp_19_3 <= 0.176991150442478
 0 <= xp_19_4 <= 0.0575221238938053
 0 <= xp_19_5 <= 0.199115044247788
 0 <= xp_19_6 <= 0.0619469026548673
 0 <= xp_19_7 <= 0.0619469026548673
 0 <= xp_19_8 <= 0.119469026548673
 0 <= xp_19_9 <= 0.0530973451327434
 0 <= xp_19_10 <= 0.0530973451327434
 0 <= xp_19_11 <= 0.0398230088495575
 0 <= xp_19_12 <= 0.0221238938053097
 0 <= xp_19_13 <= 0.00884955752212389
 0 <= xp_19_14 <= 0.00884955752212389
 0 <= xp_19_15 <= 0.00442477876106195
 0 <= xp_19_16 <= 0.00884955752212389
 0 <= xp_19_17 <= 0.0442477876106195
 0 <= xp_19_18 <= 0.0575221238938053
 0 <= xp_19_19 <= 0.0265486725663717
 0 <= xp_19_20 <= 0.0265486725663717
 0 <= xp_19_21 <= 0.0176991150442478
 0 <= xp_19_22 <= 0.00442477876106195
 0 <= xp_20_0 <= 0.933628318584071
 0 <= xp_20_1 <= 0.690265486725664
 0 <= xp_20_2 <= 0.0309734513274336
 0 <= xp_20_3 <= 0.247787610619469
 0 <= xp_20_4 <= 0.212389380530973
 0 <= xp_20_5 <= 0.141592920353982
 0 <= xp_20_6 <= 0.084070796460177
 0 <= xp_20_7 <= 0.0398230088495575
 0 <= xp_20_8 <= 0.00442477876106195
 0 <= xp_20_9 <= 0.0176991150442478
 0 <= xp_20_10 <= 0.0221238938053097
 0 <= xp_20_11 <= 0.0221238938053097
 0 <= xp_20_12 <= 0.00884955752212389
 0 <= xp_21_0 <= 0.668141592920354
 0 <= xp_21_1 <= 0.389380530973451
 0 <= xp_21_2 <= 0.31858407079646
 0 <= xp_21_3 <= 0.00442477876106195
 0 <= xp_21_4 <= 0.0309734513274336
 0 <= xp_21_5 <= 0.0619469026548673

End
